Minimize
 obj: + 126.1 x_user1_load0_hour0 + 134.3 x_user1_load0_hour1 
 + 138.7 x_user1_load0_hour2 + 154.9 x_user1_load0_hour3 
 + 163.2 x_user1_load0_hour4 + 169.3 x_user1_load0_hour5 
 + 171.5 x_user1_load0_hour6 + 183.8 x_user1_load0_hour7 
 + 197.9 x_user1_load0_hour8 + 206.1 x_user1_load0_hour9 
 + 218.5 x_user1_load0_hour10 + 151.1 x_user1_load1_hour0 
 + 154 x_user1_load1_hour1 + 166.8 x_user1_load1_hour2 
 + 182.7 x_user1_load1_hour3 + 194.4 x_user1_load1_hour4 
 + 195 x_user1_load1_hour5 + 201.9 x_user1_load1_hour6 
 + 219.6 x_user1_load1_hour7 + 231.2 x_user1_load1_hour8 
 + 244.1 x_user1_load1_hour9 + 256.9 x_user1_load1_hour10 
 + 166.9 x_user1_load2_hour0 + 187 x_user1_load2_hour1 
 + 192.7 x_user1_load2_hour2 + 214.8 x_user1_load2_hour3 
 + 216.1 x_user1_load2_hour4 + 228.5 x_user1_load2_hour5 
 + 239.6 x_user1_load2_hour6 + 249.9 x_user1_load2_hour7 
 + 271.3 x_user1_load2_hour8 + 281.4 x_user1_load2_hour9 
 + 297.1 x_user1_load2_hour10 + 83.6 x_user1_load3_hour0 
 + 90.7 x_user1_load3_hour1 + 93 x_user1_load3_hour2 
 + 104.1 x_user1_load3_hour3 + 108.3 x_user1_load3_hour4 
 + 113.4 x_user1_load3_hour5 + 115.5 x_user1_load3_hour6 
 + 122.7 x_user1_load3_hour7 + 132.8 x_user1_load3_hour8 
 + 137.9 x_user1_load3_hour9 + 146.2 x_user1_load3_hour10 
 + 65 x_user1_load4_hour0 + 64.7 x_user1_load4_hour1 
 + 70.3 x_user1_load4_hour2 + 77 x_user1_load4_hour3 
 + 83.6 x_user1_load4_hour4 + 83.1 x_user1_load4_hour5 
 + 84.8 x_user1_load4_hour6 + 93.4 x_user1_load4_hour7 
 + 97.9 x_user1_load4_hour8 + 103.6 x_user1_load4_hour9 
 + 109.2 x_user1_load4_hour10 + 113.9 x_user1_load4_hour11 
 + 82.5 x_user1_load5_hour0 + 88.6 x_user1_load5_hour1 
 + 87.9 x_user1_load5_hour2 + 100 x_user1_load5_hour3 
 + 107.3 x_user1_load5_hour4 + 113.3 x_user1_load5_hour5 
 + 110.4 x_user1_load5_hour6 + 118.7 x_user1_load5_hour7 
 + 129.7 x_user1_load5_hour8 + 133.8 x_user1_load5_hour9 
 + 143.1 x_user1_load5_hour10 + 149.2 x_user1_load5_hour11 

Subject To 
 load_load0_scheduled: + 1 x_user1_load0_hour0 + 1 x_user1_load0_hour1 
 + 1 x_user1_load0_hour2 + 1 x_user1_load0_hour3 + 1 x_user1_load0_hour4 
 + 1 x_user1_load0_hour5 + 1 x_user1_load0_hour6 + 1 x_user1_load0_hour7 
 + 1 x_user1_load0_hour8 + 1 x_user1_load0_hour9 + 1 x_user1_load0_hour10 
  = 1.0
 load_load1_scheduled: + 1 x_user1_load1_hour0 + 1 x_user1_load1_hour1 
 + 1 x_user1_load1_hour2 + 1 x_user1_load1_hour3 + 1 x_user1_load1_hour4 
 + 1 x_user1_load1_hour5 + 1 x_user1_load1_hour6 + 1 x_user1_load1_hour7 
 + 1 x_user1_load1_hour8 + 1 x_user1_load1_hour9 + 1 x_user1_load1_hour10 
  = 1.0
 load_load2_scheduled: + 1 x_user1_load2_hour0 + 1 x_user1_load2_hour1 
 + 1 x_user1_load2_hour2 + 1 x_user1_load2_hour3 + 1 x_user1_load2_hour4 
 + 1 x_user1_load2_hour5 + 1 x_user1_load2_hour6 + 1 x_user1_load2_hour7 
 + 1 x_user1_load2_hour8 + 1 x_user1_load2_hour9 + 1 x_user1_load2_hour10 
  = 1.0
 load_load3_scheduled: + 1 x_user1_load3_hour0 + 1 x_user1_load3_hour1 
 + 1 x_user1_load3_hour2 + 1 x_user1_load3_hour3 + 1 x_user1_load3_hour4 
 + 1 x_user1_load3_hour5 + 1 x_user1_load3_hour6 + 1 x_user1_load3_hour7 
 + 1 x_user1_load3_hour8 + 1 x_user1_load3_hour9 + 1 x_user1_load3_hour10 
  = 1.0
 load_load4_scheduled: + 1 x_user1_load4_hour0 + 1 x_user1_load4_hour1 
 + 1 x_user1_load4_hour2 + 1 x_user1_load4_hour3 + 1 x_user1_load4_hour4 
 + 1 x_user1_load4_hour5 + 1 x_user1_load4_hour6 + 1 x_user1_load4_hour7 
 + 1 x_user1_load4_hour8 + 1 x_user1_load4_hour9 + 1 x_user1_load4_hour10 
 + 1 x_user1_load4_hour11  = 1.0
 load_load5_scheduled: + 1 x_user1_load5_hour0 + 1 x_user1_load5_hour1 
 + 1 x_user1_load5_hour2 + 1 x_user1_load5_hour3 + 1 x_user1_load5_hour4 
 + 1 x_user1_load5_hour5 + 1 x_user1_load5_hour6 + 1 x_user1_load5_hour7 
 + 1 x_user1_load5_hour8 + 1 x_user1_load5_hour9 + 1 x_user1_load5_hour10 
 + 1 x_user1_load5_hour11  = 1.0
 MaxLoadConnection_user1_0: + 3 x_user1_load0_hour0 + 2 x_user1_load1_hour0 
 + 3 x_user1_load2_hour0 + 2 x_user1_load3_hour0 + 1 x_user1_load4_hour0 
 + 3 x_user1_load5_hour0  <= 4.0
 MaxLoadConnection_user1_1: + 3 x_user1_load0_hour1 + 2 x_user1_load0_hour0 
 + 2 x_user1_load1_hour1 + 4 x_user1_load1_hour0 + 3 x_user1_load2_hour1 
 + 1 x_user1_load2_hour0 + 2 x_user1_load3_hour1 + 1 x_user1_load3_hour0 
 + 1 x_user1_load4_hour1 + 2 x_user1_load4_hour0 + 3 x_user1_load5_hour1 
 + 1 x_user1_load5_hour0  <= 4.0
 MaxLoadConnection_user1_2: + 3 x_user1_load0_hour2 + 2 x_user1_load0_hour1 
 + 1 x_user1_load0_hour0 + 2 x_user1_load1_hour2 + 4 x_user1_load1_hour1 
 + 1 x_user1_load1_hour0 + 3 x_user1_load2_hour2 + 1 x_user1_load2_hour1 
 + 4 x_user1_load2_hour0 + 2 x_user1_load3_hour2 + 1 x_user1_load3_hour1 
 + 1 x_user1_load3_hour0 + 1 x_user1_load4_hour2 + 2 x_user1_load4_hour1 
 + 3 x_user1_load5_hour2 + 1 x_user1_load5_hour1  <= 4.0
 MaxLoadConnection_user1_3: + 3 x_user1_load0_hour3 + 2 x_user1_load0_hour2 
 + 1 x_user1_load0_hour1 + 2 x_user1_load1_hour3 + 4 x_user1_load1_hour2 
 + 1 x_user1_load1_hour1 + 3 x_user1_load2_hour3 + 1 x_user1_load2_hour2 
 + 4 x_user1_load2_hour1 + 2 x_user1_load3_hour3 + 1 x_user1_load3_hour2 
 + 1 x_user1_load3_hour1 + 1 x_user1_load4_hour3 + 2 x_user1_load4_hour2 
 + 3 x_user1_load5_hour3 + 1 x_user1_load5_hour2  <= 4.0
 MaxLoadConnection_user1_4: + 3 x_user1_load0_hour4 + 2 x_user1_load0_hour3 
 + 1 x_user1_load0_hour2 + 2 x_user1_load1_hour4 + 4 x_user1_load1_hour3 
 + 1 x_user1_load1_hour2 + 3 x_user1_load2_hour4 + 1 x_user1_load2_hour3 
 + 4 x_user1_load2_hour2 + 2 x_user1_load3_hour4 + 1 x_user1_load3_hour3 
 + 1 x_user1_load3_hour2 + 1 x_user1_load4_hour4 + 2 x_user1_load4_hour3 
 + 3 x_user1_load5_hour4 + 1 x_user1_load5_hour3  <= 4.0
 MaxLoadConnection_user1_5: + 3 x_user1_load0_hour5 + 2 x_user1_load0_hour4 
 + 1 x_user1_load0_hour3 + 2 x_user1_load1_hour5 + 4 x_user1_load1_hour4 
 + 1 x_user1_load1_hour3 + 3 x_user1_load2_hour5 + 1 x_user1_load2_hour4 
 + 4 x_user1_load2_hour3 + 2 x_user1_load3_hour5 + 1 x_user1_load3_hour4 
 + 1 x_user1_load3_hour3 + 1 x_user1_load4_hour5 + 2 x_user1_load4_hour4 
 + 3 x_user1_load5_hour5 + 1 x_user1_load5_hour4  <= 4.0
 MaxLoadConnection_user1_6: + 3 x_user1_load0_hour6 + 2 x_user1_load0_hour5 
 + 1 x_user1_load0_hour4 + 2 x_user1_load1_hour6 + 4 x_user1_load1_hour5 
 + 1 x_user1_load1_hour4 + 3 x_user1_load2_hour6 + 1 x_user1_load2_hour5 
 + 4 x_user1_load2_hour4 + 2 x_user1_load3_hour6 + 1 x_user1_load3_hour5 
 + 1 x_user1_load3_hour4 + 1 x_user1_load4_hour6 + 2 x_user1_load4_hour5 
 + 3 x_user1_load5_hour6 + 1 x_user1_load5_hour5  <= 4.0
 MaxLoadConnection_user1_7: + 3 x_user1_load0_hour7 + 2 x_user1_load0_hour6 
 + 1 x_user1_load0_hour5 + 2 x_user1_load1_hour7 + 4 x_user1_load1_hour6 
 + 1 x_user1_load1_hour5 + 3 x_user1_load2_hour7 + 1 x_user1_load2_hour6 
 + 4 x_user1_load2_hour5 + 2 x_user1_load3_hour7 + 1 x_user1_load3_hour6 
 + 1 x_user1_load3_hour5 + 1 x_user1_load4_hour7 + 2 x_user1_load4_hour6 
 + 3 x_user1_load5_hour7 + 1 x_user1_load5_hour6  <= 4.0
 MaxLoadConnection_user1_8: + 3 x_user1_load0_hour8 + 2 x_user1_load0_hour7 
 + 1 x_user1_load0_hour6 + 2 x_user1_load1_hour8 + 4 x_user1_load1_hour7 
 + 1 x_user1_load1_hour6 + 3 x_user1_load2_hour8 + 1 x_user1_load2_hour7 
 + 4 x_user1_load2_hour6 + 2 x_user1_load3_hour8 + 1 x_user1_load3_hour7 
 + 1 x_user1_load3_hour6 + 1 x_user1_load4_hour8 + 2 x_user1_load4_hour7 
 + 3 x_user1_load5_hour8 + 1 x_user1_load5_hour7  <= 4.0
 MaxLoadConnection_user1_9: + 3 x_user1_load0_hour9 + 2 x_user1_load0_hour8 
 + 1 x_user1_load0_hour7 + 2 x_user1_load1_hour9 + 4 x_user1_load1_hour8 
 + 1 x_user1_load1_hour7 + 3 x_user1_load2_hour9 + 1 x_user1_load2_hour8 
 + 4 x_user1_load2_hour7 + 2 x_user1_load3_hour9 + 1 x_user1_load3_hour8 
 + 1 x_user1_load3_hour7 + 1 x_user1_load4_hour9 + 2 x_user1_load4_hour8 
 + 3 x_user1_load5_hour9 + 1 x_user1_load5_hour8  <= 4.0
 MaxLoadConnection_user1_10: + 3 x_user1_load0_hour10 + 2 x_user1_load0_hour9 
 + 1 x_user1_load0_hour8 + 2 x_user1_load1_hour10 + 4 x_user1_load1_hour9 
 + 1 x_user1_load1_hour8 + 3 x_user1_load2_hour10 + 1 x_user1_load2_hour9 
 + 4 x_user1_load2_hour8 + 2 x_user1_load3_hour10 + 1 x_user1_load3_hour9 
 + 1 x_user1_load3_hour8 + 1 x_user1_load4_hour10 + 2 x_user1_load4_hour9 
 + 3 x_user1_load5_hour10 + 1 x_user1_load5_hour9  <= 4.0
 MaxLoadConnection_user1_11: + 2 x_user1_load0_hour10 + 1 x_user1_load0_hour9 
 + 4 x_user1_load1_hour10 + 1 x_user1_load1_hour9 + 1 x_user1_load2_hour10 
 + 4 x_user1_load2_hour9 + 1 x_user1_load3_hour10 + 1 x_user1_load3_hour9 
 + 1 x_user1_load4_hour11 + 2 x_user1_load4_hour10 + 3 x_user1_load5_hour11 
 + 1 x_user1_load5_hour10  <= 4.0
 MaxLoadConnection_user1_12: + 1 x_user1_load0_hour10 + 1 x_user1_load1_hour10 
 + 4 x_user1_load2_hour10 + 1 x_user1_load3_hour10 + 2 x_user1_load4_hour11 
 + 1 x_user1_load5_hour11  <= 4.0

Bounds

Binary
 x_user1_load0_hour0 x_user1_load0_hour1 x_user1_load0_hour2
  x_user1_load0_hour3 x_user1_load0_hour4 x_user1_load0_hour5
  x_user1_load0_hour6 x_user1_load0_hour7 x_user1_load0_hour8
  x_user1_load0_hour9 x_user1_load0_hour10 x_user1_load1_hour0
  x_user1_load1_hour1 x_user1_load1_hour2 x_user1_load1_hour3
  x_user1_load1_hour4 x_user1_load1_hour5 x_user1_load1_hour6
  x_user1_load1_hour7 x_user1_load1_hour8 x_user1_load1_hour9
  x_user1_load1_hour10 x_user1_load2_hour0 x_user1_load2_hour1
  x_user1_load2_hour2 x_user1_load2_hour3 x_user1_load2_hour4
  x_user1_load2_hour5 x_user1_load2_hour6 x_user1_load2_hour7
  x_user1_load2_hour8 x_user1_load2_hour9 x_user1_load2_hour10
  x_user1_load3_hour0 x_user1_load3_hour1 x_user1_load3_hour2
  x_user1_load3_hour3 x_user1_load3_hour4 x_user1_load3_hour5
  x_user1_load3_hour6 x_user1_load3_hour7 x_user1_load3_hour8
  x_user1_load3_hour9 x_user1_load3_hour10 x_user1_load4_hour0
  x_user1_load4_hour1 x_user1_load4_hour2 x_user1_load4_hour3
  x_user1_load4_hour4 x_user1_load4_hour5 x_user1_load4_hour6
  x_user1_load4_hour7 x_user1_load4_hour8 x_user1_load4_hour9
  x_user1_load4_hour10 x_user1_load4_hour11 x_user1_load5_hour0
  x_user1_load5_hour1 x_user1_load5_hour2 x_user1_load5_hour3
  x_user1_load5_hour4 x_user1_load5_hour5 x_user1_load5_hour6
  x_user1_load5_hour7 x_user1_load5_hour8 x_user1_load5_hour9
  x_user1_load5_hour10 x_user1_load5_hour11
General

End